Version identifier: 22.1.0.0 | 2022-03-09 | 1a383f8ce
CPXPARAM_Threads                                 1
CPXPARAM_MIP_Strategy_VariableSelect             3
CPXPARAM_TimeLimit                               598.46648769000001
Tried aggregator 1 time.
MIP Presolve eliminated 13 rows and 0 columns.
MIP Presolve modified 1 coefficients.
Reduced MIP has 1212 rows, 5000 columns, and 55896 nonzeros.
Reduced MIP has 5000 binaries, 0 generals, 0 SOSs, and 0 indicators.
Presolve time = 0.04 sec. (27.18 ticks)
Probing time = 0.01 sec. (5.47 ticks)
Tried aggregator 1 time.
Detecting symmetries...
Reduced MIP has 1212 rows, 5000 columns, and 55896 nonzeros.
Reduced MIP has 5000 binaries, 0 generals, 0 SOSs, and 0 indicators.
Presolve time = 0.04 sec. (33.18 ticks)
Probing time = 0.01 sec. (5.47 ticks)
Clique table members: 799.
MIP emphasis: balance optimality and feasibility.
MIP search method: dynamic search.
Parallel mode: none, using 1 thread.
Root relaxation solution time = 0.59 sec. (630.36 ticks)

        Nodes                                         Cuts/
   Node  Left     Objective  IInf  Best Integer    Best Bound    ItCnt     Gap

      0     0        0.0000   884                      0.0000     3080         
      0     2        0.0000   176                      0.0000     3080         
Elapsed time = 8.58 sec. (9203.63 ticks, tree = 0.01 MB, solutions = 0)
      1     3        0.0000   645                      0.0000     9069         
      2     4        0.0000   454                      0.0000    11649         
      3     5        0.0000   246                      0.0000    14720         
      4     6        0.0000   532                      0.0000    17926         
      6     8        0.0000   672                      0.0000    21184         
      7     9        0.0000   440                      0.0000    21719         
      8    10        0.0000   244                      0.0000    21792         
      9    11        0.0000   234                      0.0000    21905         
     10    12        0.0000   632                      0.0000    23081         
     13    15        0.0000   789                      0.0000    27579         
Elapsed time = 16.08 sec. (17630.14 ticks, tree = 0.05 MB, solutions = 0)
     16    18        0.0000   532                      0.0000    36721         
     18    20        0.0000   238                      0.0000    41634         
     21    23        0.0000   313                      0.0000    45175         
     23    25        0.0000   183                      0.0000    51290         
     24    26        0.0000   165                      0.0000    58906         
     25    27        0.0000   382                      0.0000    63535         
     27    29        0.0000   392                      0.0000    69622         
     30    32        0.0000   372                      0.0000    71533         
     35    35    infeasible                            0.0000    75688         
     40    40        0.0000   372                      0.0000    77064         
Elapsed time = 30.75 sec. (33390.83 ticks, tree = 0.10 MB, solutions = 0)
     45    45        0.0000   367                      0.0000    78602         
     49    49        0.0000   389                      0.0000    80457         
     55    55        0.0000   376                      0.0000    83069         
     59    59        0.0000   254                      0.0000    86598         
     62    60    infeasible                            0.0000    91185         
     65    61    infeasible                            0.0000    95812         
     68    64        0.0000   202                      0.0000   105236         
     74    66    infeasible                            0.0000   112724         
     79    66    infeasible                            0.0000   119404         
     86    67        0.0000   126                      0.0000   121950         
Elapsed time = 41.54 sec. (44548.57 ticks, tree = 0.16 MB, solutions = 0)
     87    68        0.0000   215                      0.0000   128060         
     89    70        0.0000   154                      0.0000   134873         
     90    71        0.0000   123                      0.0000   136946         
     91    72        0.0000   258                      0.0000   146109         
     93    74        0.0000   191                      0.0000   150470         
     94    75        0.0000   243                      0.0000   154494         
     95    76        0.0000   204                      0.0000   160527         
     97    78        0.0000   284                      0.0000   164324         
    100    81        0.0000   241                      0.0000   169190         
    102    83        0.0000   295                      0.0000   173438         
Elapsed time = 55.73 sec. (59561.20 ticks, tree = 0.21 MB, solutions = 0)
    104    85        0.0000   382                      0.0000   182901         
    106    87        0.0000   283                      0.0000   186276         
    109    88    infeasible                            0.0000   200824         
    110    89        0.0000   270                      0.0000   204873         
    111    90        0.0000   326                      0.0000   209288         
    113    92        0.0000   265                      0.0000   212905         
    115    92    infeasible                            0.0000   224246         
    120    97        0.0000   313                      0.0000   225697         
    125   102        0.0000   295                      0.0000   226706         
    130   107        0.0000   329                      0.0000   228503         
Elapsed time = 69.75 sec. (74492.16 ticks, tree = 0.31 MB, solutions = 0)
    135   111        0.0000   304                      0.0000   230208         
    140   114    infeasible                            0.0000   232543         
    146   120        0.0000   224                      0.0000   233729         
    152   126        0.0000   225                      0.0000   235587         
    158   132        0.0000   233                      0.0000   237398         
    164   131        0.0000   140                      0.0000   241173         
    175   131        0.0000   166                      0.0000   244066         
    183   130    infeasible                            0.0000   247814         
    192   131        0.0000   152                      0.0000   250897         
    203   130        0.0000   139                      0.0000   256681         
Elapsed time = 80.21 sec. (85577.10 ticks, tree = 0.36 MB, solutions = 0)
    206   131        0.0000   199                      0.0000   259190         
    209   134        0.0000   376                      0.0000   261240         
    214   139        0.0000   338                      0.0000   262327         
    219   144        0.0000   322                      0.0000   263817         
    220   145        0.0000   295                      0.0000   264411         
    226   149        0.0000   204                      0.0000   266717         
    236   150        0.0000   198                      0.0000   269326         
    242   150    infeasible                            0.0000   271618         
    255   151        0.0000   453                      0.0000   274830         
    258   154        0.0000   462                      0.0000   276640         
Elapsed time = 92.55 sec. (98790.86 ticks, tree = 0.41 MB, solutions = 0)
    260   156        0.0000   442                      0.0000   276855         
    266   162        0.0000   339                      0.0000   278258         
    271   165        0.0000   364                      0.0000   280802         
    277   171        0.0000   311                      0.0000   282400         
    283   177        0.0000   304                      0.0000   283891         
    289   179    infeasible                            0.0000   286514         
    296   182        0.0000   288                      0.0000   289541         
    301   185    infeasible                            0.0000   291208         
    308   186    infeasible                            0.0000   294273         
    316   187        0.0000   292                      0.0000   296896         
Elapsed time = 102.46 sec. (109501.53 ticks, tree = 0.48 MB, solutions = 0)
    324   189        0.0000   171                      0.0000   299756         
    327   192        0.0000   267                      0.0000   302174         
    332   196        0.0000   318                      0.0000   304025         
    336   200        0.0000   385                      0.0000   306064         
    342   204        0.0000   394                      0.0000   308159         
    348   207        0.0000   318                      0.0000   309815         
    356   209        0.0000   277                      0.0000   312394         
    365   210        0.0000   287                      0.0000   314913         
    373   210        0.0000   291                      0.0000   318041         
    382   210        0.0000   300                      0.0000   320388         
Elapsed time = 112.08 sec. (120327.58 ticks, tree = 0.53 MB, solutions = 0)
    390   210        0.0000   282                      0.0000   323427         
    400   210        0.0000   254                      0.0000   326426         
    410   210        0.0000   249                      0.0000   329386         
    418   209        0.0000   357                      0.0000   333540         
    419   210        0.0000   309                      0.0000   338732         
    423   214        0.0000   312                      0.0000   341318         
    428   219        0.0000   257                      0.0000   343505         
    433   224        0.0000   288                      0.0000   345992         
    442   225        0.0000   284                      0.0000   348867         
    457   236        0.0000   382                      0.0000   354522         
Elapsed time = 124.80 sec. (134533.19 ticks, tree = 0.59 MB, solutions = 0)
    474   253        0.0000   285                      0.0000   359799         
    488   261        0.0000   253                      0.0000   365641         
    524   262        0.0000   397                      0.0000   375710         
    534   272        0.0000   317                      0.0000   385524         
    552   290        0.0000   302                      0.0000   391487         
    574   304        0.0000   213                      0.0000   399768         
    596   313        0.0000   315                      0.0000   406687         
    608   325        0.0000   361                      0.0000   410226         
    628   344        0.0000   277                      0.0000   419650         
    654   352        0.0000   218                      0.0000   429411         
Elapsed time = 161.46 sec. (174938.09 ticks, tree = 0.84 MB, solutions = 0)
    685   353    infeasible                            0.0000   440710         
    717   354        0.0000   154                      0.0000   452829         
    755   355        0.0000   130                      0.0000   461356         
    787   352        0.0000   112                      0.0000   475624         
    800   352        0.0000   373                      0.0000   480398         
    817   367        0.0000   272                      0.0000   487718         
    842   370        0.0000   159                      0.0000   498625         
    878   371        0.0000   163                      0.0000   508121         
    902   369        0.0000   365                      0.0000   517348         
    919   386        0.0000   385                      0.0000   521718         
Elapsed time = 198.57 sec. (214699.16 ticks, tree = 0.91 MB, solutions = 0)
    936   401        0.0000   236                      0.0000   526482         
    967   407        0.0000   179                      0.0000   534717         
    984   404        0.0000   205                      0.0000   543518         
   1016   410        0.0000   185                      0.0000   556507         
   1049   410        0.0000   156                      0.0000   566644         
   1083   411    infeasible                            0.0000   576864         
   1107   421        0.0000   271                      0.0000   584277         
   1143   433    infeasible                            0.0000   592305         
   1193   440        0.0000   149                      0.0000   602542         
   1230   436        0.0000   148                      0.0000   614565         
Elapsed time = 235.51 sec. (253389.29 ticks, tree = 1.02 MB, solutions = 0)
   1284   434        0.0000   178                      0.0000   626657         
   1328   436        0.0000   163                      0.0000   638364         
   1376   437        0.0000   172                      0.0000   649968         
   1423   445    infeasible                            0.0000   661149         
   1471   441        0.0000   204                      0.0000   676402         
   1518   437        0.0000   163                      0.0000   690717         
   1555   434    infeasible                            0.0000   702545         
   1603   434        0.0000   178                      0.0000   716356         
   1657   434        0.0000   165                      0.0000   727683         
   1705   435        0.0000   122                      0.0000   741203         
Elapsed time = 273.29 sec. (291940.06 ticks, tree = 1.02 MB, solutions = 0)
   1752   440        0.0000   175                      0.0000   752604         
   1795   448        0.0000   127                      0.0000   764059         
   1844   448    infeasible                            0.0000   776340         
   1893   445        0.0000   193                      0.0000   789276         
   1943   443    infeasible                            0.0000   802203         
   1989   449        0.0000   129                      0.0000   813359         
   2036   456    infeasible                            0.0000   825580         
   2087   455    infeasible                            0.0000   838095         
   2136   453        0.0000   189                      0.0000   850558         
   2177   455        0.0000   174                      0.0000   860737         
Elapsed time = 311.21 sec. (330460.85 ticks, tree = 1.06 MB, solutions = 0)
   2227   451    infeasible                            0.0000   874455         
   2276   450        0.0000   177                      0.0000   887694         
   2320   458        0.0000   130                      0.0000   899204         
   2372   456        0.0000   165                      0.0000   912587         
   2413   452        0.0000   182                      0.0000   924211         
   2458   462        0.0000   168                      0.0000   935800         
   2511   460        0.0000   172                      0.0000   948473         

Performing restart 1

Repeating presolve.
Tried aggregator 1 time.
MIP Presolve modified 14850 coefficients.
Reduced MIP has 1212 rows, 5000 columns, and 54114 nonzeros.
Reduced MIP has 5000 binaries, 0 generals, 0 SOSs, and 0 indicators.
Presolve time = 0.05 sec. (53.95 ticks)
Tried aggregator 1 time.
Reduced MIP has 1212 rows, 5000 columns, and 54114 nonzeros.
Reduced MIP has 5000 binaries, 0 generals, 0 SOSs, and 0 indicators.
Presolve time = 0.04 sec. (33.75 ticks)
Represolve time = 0.30 sec. (210.49 ticks)
   2555     0        0.0000   377                     Cuts: 6   962351         
   2555     0        0.0000   624                   Cuts: 165   965735         
   2555     0        0.0000   224                 ZeroHalf: 1   965998         
   2555     0        0.0000   537                    Cuts: 83   969593         
   2555     0        0.0000   586                     Cuts: 9   972597         
   2555     2        0.0000   174                      0.0000   972597         
   2559     6        0.0000   477                      0.0000   987914         
   2565    12        0.0000   536                      0.0000   989742         
Elapsed time = 375.08 sec. (395588.69 ticks, tree = 0.08 MB, solutions = 0)
   2577    24        0.0000   441                      0.0000  1003004         
   2589    36        0.0000   255                      0.0000  1020500         
   2602    41        0.0000   229                      0.0000  1044861         
   2617    46    infeasible                            0.0000  1060053         
   2626    43        0.0000   189                      0.0000  1088857         
   2638    45        0.0000   225                      0.0000  1100039         
   2653    50        0.0000   140                      0.0000  1113256         
   2663    52        0.0000   129                      0.0000  1128640         
   2672    49        0.0000   175                      0.0000  1140808         
   2692    57    infeasible                            0.0000  1151798         
Elapsed time = 414.33 sec. (435958.48 ticks, tree = 0.46 MB, solutions = 0)
   2711    64        0.0000   140                      0.0000  1162647         
   2737    72        0.0000   186                      0.0000  1172744         
   2757    78        0.0000   195                      0.0000  1187195         
   2781    86        0.0000   237                      0.0000  1199734         
   2807    88        0.0000   189                      0.0000  1210902         
   2836    87    infeasible                            0.0000  1224677         
   2858    89        0.0000   198                      0.0000  1235623         
   2879    96        0.0000   170                      0.0000  1246840         
   2907    98    infeasible                            0.0000  1259071         
   2933   110        0.0000   187                      0.0000  1269434         
Elapsed time = 452.34 sec. (475505.03 ticks, tree = 0.57 MB, solutions = 0)
   2950   109        0.0000   175                      0.0000  1283374         
   2979   110    infeasible                            0.0000  1295859         
   3005   116        0.0000   136                      0.0000  1308423         
   3032   123        0.0000   228                      0.0000  1320216         
   3059   134        0.0000   184                      0.0000  1331501         
   3085   134        0.0000   193                      0.0000  1341532         
   3112   141    infeasible                            0.0000  1351857         
   3144   141        0.0000   218                      0.0000  1363486         
   3168   147        0.0000   216                      0.0000  1375267         
   3193   148        0.0000   195                      0.0000  1386683         
Elapsed time = 490.67 sec. (514976.59 ticks, tree = 0.66 MB, solutions = 0)
   3217   144        0.0000   211                      0.0000  1400713         
   3242   145    infeasible                            0.0000  1415491         
   3269   148        0.0000   224                      0.0000  1427896         
   3298   147    infeasible                            0.0000  1438137         
   3321   148    infeasible                            0.0000  1448498         
   3353   148        0.0000   196                      0.0000  1461552         
   3382   145    infeasible                            0.0000  1475708         
   3415   140        0.0000   204                      0.0000  1491611         
   3445   142        0.0000   136                      0.0000  1504086         
   3476   143        0.0000   184                      0.0000  1517325         
Elapsed time = 528.20 sec. (554034.79 ticks, tree = 0.65 MB, solutions = 0)
   3505   139    infeasible                            0.0000  1532072         
   3526   144    infeasible                            0.0000  1545193         
   3555   145    infeasible                            0.0000  1558770         

Performing restart 2

Repeating presolve.
Tried aggregator 1 time.
Reduced MIP has 1212 rows, 5000 columns, and 54114 nonzeros.
Reduced MIP has 5000 binaries, 0 generals, 0 SOSs, and 0 indicators.
Presolve time = 0.03 sec. (25.88 ticks)
Tried aggregator 1 time.
Reduced MIP has 1212 rows, 5000 columns, and 54114 nonzeros.
Reduced MIP has 5000 binaries, 0 generals, 0 SOSs, and 0 indicators.
Presolve time = 0.04 sec. (33.75 ticks)
Represolve time = 1.35 sec. (515.90 ticks)
   3577     0        0.0000   173                     Cuts: 3  1573563         
   3577     0        0.0000   449                   Cuts: 140  1575702         
   3577     0        0.0000   486                     Cuts: 3  1577453         
   3577     0        0.0000   158                     Cuts: 5  1578709         

Clique cuts applied:  11
Zero-half cuts applied:  29
Gomory fractional cuts applied:  4

Root node processing (before b&c):
  Real time             =    8.54 sec. (9172.15 ticks)
Sequential b&c:
  Real time             =  589.93 sec. (618908.69 ticks)
                          ------------
Total (root+branch&cut) =  598.47 sec. (628080.85 ticks)
Primal:	189
Dual:	200
Status:	Feasible
Time:	598.513
Sequence:
	0
